161 5
10 10 10 10 10 

0 0 0 0 0 0 5 2 24 46 58 80 
0 0 0 0 0 0 1 3 
7 1 0 0 0 1 2 6 4 
3 3 0 0 0 1 1 5 
9 7 0 0 0 4 1 7 
2 7 0 0 0 5 1 7 
10 7 0 0 0 4 2 9 8 
9 5 0 0 0 3 3 18 14 10 
1 4 0 0 0 6 4 15 14 13 12 
5 4 0 0 0 6 3 15 13 11 
5 7 0 0 0 8 1 12 
4 3 0 0 0 5 4 22 21 20 16 
3 2 0 0 0 2 4 22 21 20 19 
9 4 0 0 0 7 2 21 19 
6 7 0 0 0 5 1 17 
6 5 0 0 0 5 1 19 
5 7 0 0 0 7 1 19 
4 2 0 0 0 6 1 20 
1 8 0 0 0 7 2 23 122 
10 6 0 0 0 6 1 23 
9 7 0 0 0 8 1 23 
10 4 0 0 0 4 1 23 
0 0 0 0 0 0 1 126 
0 0 0 0 0 0 2 25 44 
3 1 1 0 0 0 1 26 
2 2 5 0 0 0 2 29 27 
5 6 6 0 0 0 1 28 
10 2 9 0 0 0 2 38 30 
2 6 4 0 0 0 2 30 97 
4 6 7 0 0 0 4 36 35 33 31 
3 8 2 0 0 0 1 32 
2 7 5 0 0 0 2 42 34 
9 7 2 0 0 0 2 42 34 
2 5 8 0 0 0 2 41 37 
5 9 4 0 0 0 2 41 37 
10 4 6 0 0 0 2 41 37 
3 4 3 0 0 0 2 40 39 
6 3 7 0 0 0 1 43 
10 6 6 0 0 0 1 45 
5 4 6 0 0 0 1 45 
5 5 4 0 0 0 1 45 
5 5 3 0 0 0 1 45 
9 4 5 0 0 0 1 45 
6 6 7 0 0 0 1 45 
0 0 0 0 0 0 1 126 
0 0 0 0 0 0 1 47 
5 0 0 0 0 1 4 52 51 49 48 
2 0 0 0 0 9 1 50 
3 0 0 0 0 5 1 50 
8 0 0 0 0 3 3 54 53 81 
8 0 0 0 0 4 2 54 53 
5 0 0 0 0 8 2 54 53 
1 0 0 0 0 5 2 56 55 
1 0 0 0 0 7 1 55 
7 0 0 0 0 5 1 57 
4 0 0 0 0 3 1 57 
0 0 0 0 0 0 2 102 114 
0 0 0 0 0 0 3 59 61 65 
1 0 0 0 1 1 1 60 
8 0 0 0 6 10 4 73 72 62 108 
7 0 0 0 3 8 2 72 62 
4 0 0 0 5 5 4 78 77 71 63 
7 0 0 0 4 3 2 70 64 
10 0 0 0 7 7 2 75 66 
7 0 0 0 3 4 2 76 68 
4 0 0 0 3 6 1 67 
8 0 0 0 7 3 1 68 
5 0 0 0 5 9 1 69 
5 0 0 0 10 3 1 74 
3 0 0 0 4 4 1 76 
5 0 0 0 4 5 1 75 
7 0 0 0 7 4 1 77 
3 0 0 0 5 6 1 77 
2 0 0 0 3 4 1 79 
2 0 0 0 6 3 1 79 
3 0 0 0 6 3 1 79 
4 0 0 0 3 6 1 79 
9 0 0 0 8 6 1 79 
0 0 0 0 0 0 1 126 
0 0 0 0 0 0 2 81 83 
3 1 0 0 0 1 2 86 82 
3 6 0 0 0 4 1 84 
3 4 0 0 0 5 1 84 
8 2 0 0 0 6 2 87 85 
2 2 0 0 0 6 3 92 90 88 
3 5 0 0 0 5 4 93 91 90 89 
1 7 0 0 0 8 3 93 92 91 
3 4 0 0 0 4 2 93 89 
9 5 0 0 0 6 3 100 98 94 
2 4 0 0 0 4 3 99 98 94 
4 3 0 0 0 4 3 100 98 95 
9 7 0 0 0 4 2 98 94 
5 8 0 0 0 7 3 99 98 97 
5 6 0 0 0 6 1 95 
8 4 0 0 0 4 1 96 
4 9 0 0 0 3 1 97 
4 3 0 0 0 7 1 101 
4 5 0 0 0 6 1 101 
8 6 0 0 0 7 1 101 
6 9 0 0 0 3 1 101 
0 0 0 0 0 0 1 126 
0 0 0 0 0 0 4 103 104 106 112 
1 1 0 0 0 0 3 111 110 105 
10 5 0 0 0 0 2 110 107 
9 5 0 0 0 0 1 107 
9 6 0 0 0 0 1 107 
2 5 0 0 0 0 1 108 
1 5 0 0 0 0 1 109 
2 7 0 0 0 0 1 113 
1 6 0 0 0 0 1 113 
10 3 0 0 0 0 1 113 
5 7 0 0 0 0 1 113 
0 0 0 0 0 0 1 126 
0 0 0 0 0 0 3 115 116 117 
10 0 0 0 0 1 3 124 119 118 
4 0 0 0 0 5 3 124 119 118 
1 0 0 0 0 6 2 124 118 
4 0 0 0 0 5 2 122 120 
10 0 0 0 0 2 1 120 
1 0 0 0 0 2 1 121 
10 0 0 0 0 7 1 123 
7 0 0 0 0 7 1 123 
10 0 0 0 0 7 1 125 
10 0 0 0 0 8 1 125 
0 0 0 0 0 0 1 126 
0 0 0 0 0 0 3 127 129 130 
3 0 0 3 0 0 2 136 128 
2 0 0 3 0 0 2 134 131 
10 0 0 5 0 0 4 136 135 134 133 
3 0 0 2 0 0 3 136 134 133 
2 0 0 5 0 0 2 135 132 
3 0 0 6 0 0 1 133 
1 0 0 10 0 0 1 137 
10 0 0 4 0 0 1 137 
9 0 0 3 0 0 1 137 
8 0 0 9 0 0 1 137 
0 0 0 0 0 0 1 138 
0 0 0 0 0 0 4 139 142 147 148 
8 0 0 1 0 0 2 144 140 
8 0 0 8 0 0 2 146 141 
8 0 0 4 0 0 1 143 
5 0 0 6 0 0 1 143 
9 0 0 5 0 0 1 145 
9 0 0 4 0 0 1 146 
7 0 0 7 0 0 1 149 
2 0 0 2 0 0 1 149 
8 0 0 6 0 0 1 149 
7 0 0 7 0 0 1 149 
0 0 0 0 0 0 1 150 
0 0 0 0 0 0 3 151 153 154 
8 0 0 0 0 1 2 160 152 
2 0 0 0 0 2 3 159 157 155 
5 0 0 0 0 4 3 160 159 158 
7 0 0 0 0 8 2 159 158 
6 0 0 0 0 8 1 156 
2 0 0 0 0 5 1 158 
6 0 0 0 0 4 1 158 
10 0 0 0 0 2 1 161 
3 0 0 0 0 10 1 161 
9 0 0 0 0 6 1 161 
0 0 0 0 0 0 0 
